           3
 Step:           10  E:   0.12171552463450373     
H        -0.000422       4.000431       0.000000
H         0.003689       0.000041       0.000000
H         1.396733      -0.000472       0.000000
           3
 Step:           20  E:    5.9811288890022707E-003
H         9.998701       4.012580       0.000000
H         0.017237      -0.005528       0.000000
H         1.384063      -0.007053       0.000000
           3
 Step:           30  E:    3.5620064547065501E-003
H        19.998552       4.026049       0.000000
H        -0.013303      -0.012209       0.000000
H         1.414750      -0.013840       0.000000
           3
 Step:           40  E:    2.5511434291957747E-004
H        29.998404       4.039517       0.000000
H        -0.004816      -0.018935       0.000000
H         1.406412      -0.020582       0.000000
           3
 Step:           50  E:    6.1875574595108744E-003
H        39.998257       4.052986       0.000000
H         0.018354      -0.025678       0.000000
H         1.383389      -0.027308       0.000000
           3
 Step:           60  E:    2.4331864411203789E-003
H        49.998109       4.066454       0.000000
H        -0.010877      -0.032358       0.000000
H         1.412768      -0.034096       0.000000
           3
 Step:           70  E:    1.0715426862612822E-003
H        59.997961       4.079923       0.000000
H        -0.007453      -0.039079       0.000000
H         1.409491      -0.040844       0.000000
           3
 Step:           80  E:    6.4667464291339695E-003
H        69.997814       4.093391       0.000000
H         0.018934      -0.045828       0.000000
H         1.383252      -0.047564       0.000000
           3
 Step:           90  E:    1.3638548157468070E-003
H        79.997666       4.106860       0.000000
H        -0.008123      -0.052508       0.000000
H         1.410457      -0.054352       0.000000
           3
 Step:          100  E:    2.0992634410479036E-003
H        89.997518       4.120329       0.000000
H        -0.009851      -0.059222       0.000000
H         1.412332      -0.061106       0.000000
           3
 Step:          110  E:    6.3158105257843144E-003
H        99.997371       4.133797       0.000000
H         0.018963      -0.065977       0.000000
H         1.383667      -0.067821       0.000000
           3
 Step:          120  E:    4.7256842303485062E-004
H       109.997223       4.147266       0.000000
H        -0.005107      -0.072659       0.000000
H         1.407884      -0.074606       0.000000
           3
 Step:          130  E:    3.2230463364295507E-003
H       119.997075       4.160734       0.000000
H        -0.011939      -0.079366       0.000000
H         1.414863      -0.081368       0.000000
           3
 Step:          140  E:    5.7544440648077235E-003
H       129.996928       4.174203       0.000000
H         0.018447      -0.086125       0.000000
H         1.384626      -0.088078       0.000000
           3
 Step:          150  E:   -1.3765396028277049E-004
H       139.996780       4.187672       0.000000
H        -0.001906      -0.092811       0.000000
H         1.405126      -0.094861       0.000000
           3
 Step:          160  E:    4.3210764180840917E-003
H       149.996632       4.201140       0.000000
H        -0.013655      -0.099510       0.000000
H         1.417023      -0.101630       0.000000
           3
 Step:          170  E:    4.8555374881332266E-003
H       159.996485       4.214609       0.000000
H         0.017410      -0.106272       0.000000
H         1.386105      -0.108336       0.000000
           3
 Step:          180  E:   -3.9157821994433630E-004
H       169.996337       4.228077       0.000000
H         0.001397      -0.112963       0.000000
H         1.402266      -0.115114       0.000000
           3
 Step:          190  E:    5.2774060526124033E-003
H       179.996189       4.241546       0.000000
H        -0.014950      -0.119654       0.000000
H         1.418761      -0.121892       0.000000
           3
 Step:          200  E:    3.7345684176006626E-003
H       189.996041       4.255014       0.000000
H         0.015894      -0.126419       0.000000
H         1.388064      -0.128596       0.000000
           3
 Step:          210  E:   -2.5199753565430298E-004
H       199.995894       4.268483       0.000000
H         0.004713      -0.133116       0.000000
H         1.399393      -0.135367       0.000000
           3
 Step:          220  E:    5.9930592407498959E-003
H       209.995746       4.281952       0.000000
H        -0.015785      -0.139799       0.000000
H         1.420039      -0.142153       0.000000
           3
 Step:          230  E:    2.5331663640271937E-003
H       219.995598       4.295420       0.000000
H         0.013954      -0.146564       0.000000
H         1.390447      -0.148856       0.000000
           3
 Step:          240  E:    2.7353297901569549E-004
H       229.995451       4.308889       0.000000
H         0.007952      -0.153269       0.000000
H         1.396597      -0.155619       0.000000
           3
 Step:          250  E:    6.3950333322566923E-003
H       239.995303       4.322357       0.000000
H        -0.016132      -0.159944       0.000000
H         1.420829      -0.162413       0.000000
           3
 Step:          260  E:    1.3996624804734591E-003
H       249.995155       4.335826       0.000000
H         0.011660      -0.166709       0.000000
H         1.393185      -0.169117       0.000000
           3
 Step:          270  E:    1.1308408146778431E-003
H       259.995008       4.349295       0.000000
H         0.011024      -0.173423       0.000000
H         1.393968      -0.175872       0.000000
           3
 Step:          280  E:    6.4426899054083704E-003
H       269.994860       4.362763       0.000000
H        -0.015976      -0.180091       0.000000
H         1.421116      -0.182672       0.000000
           3
 Step:          290  E:    4.6974223462321467E-004
H       279.994712       4.376232       0.000000
H         0.009090      -0.186852       0.000000
H         1.396198      -0.189380       0.000000
           3
 Step:          300  E:    2.2231029784242967E-003
H       289.994565       4.389700       0.000000
H         0.013842      -0.193576       0.000000
H         1.391593      -0.196124       0.000000
           3
 Step:          310  E:    6.1312277381038735E-003
H       299.994417       4.403169       0.000000
H        -0.015317      -0.200238       0.000000
H         1.420900      -0.202931       0.000000
           3
 Step:          320  E:   -1.4999484793658491E-004
H       309.994269       4.416637       0.000000
H         0.006329      -0.206995       0.000000
H         1.399402      -0.209643       0.000000
           3
 Step:          330  E:    3.4208514949295821E-003
H       319.994122       4.430106       0.000000
H         0.016325      -0.213729       0.000000
H         1.389553      -0.216377       0.000000
           3
 Step:          340  E:    5.4920892753602671E-003
H       329.993974       4.443575       0.000000
H        -0.014166      -0.220386       0.000000
H         1.420192      -0.223189       0.000000
           3
 Step:          350  E:   -3.9354547939373573E-004
H       339.993826       4.457043       0.000000
H         0.003467      -0.227137       0.000000
H         1.402706      -0.229906       0.000000
           3
 Step:          360  E:    4.5772760106618368E-003
H       349.993678       4.470512       0.000000
H         0.018402      -0.233882       0.000000
H         1.387919      -0.236630       0.000000
           3
 Step:          370  E:    4.5902840346979312E-003
H       359.993531       4.483980       0.000000
H        -0.012545      -0.240535       0.000000
H         1.419014      -0.243445       0.000000
           3
 Step:          380  E:   -2.4106986152348553E-004
H       369.993383       4.497449       0.000000
H         0.000596      -0.247278       0.000000
H         1.406021      -0.250171       0.000000
           3
 Step:          390  E:    5.5470540579922812E-003
H       379.993235       4.510918       0.000000
H         0.020012      -0.254034       0.000000
H         1.386752      -0.256884       0.000000
           3
 Step:          400  E:    3.5187411925690490E-003
H       389.993088       4.524386       0.000000
H        -0.010491      -0.260686       0.000000
H         1.417403      -0.263700       0.000000
           3
 Step:          410  E:    2.8150192913009488E-004
H       399.992940       4.537855       0.000000
H        -0.002197      -0.267420       0.000000
H         1.409257      -0.270435       0.000000
           3
 Step:          420  E:    6.2060735597487208E-003
H       409.992792       4.551323       0.000000
H         0.021111      -0.274185       0.000000
H         1.386096      -0.277138       0.000000
           3
 Step:          430  E:    2.3899531623884918E-003
H       419.992645       4.564792       0.000000
H        -0.008052      -0.280837       0.000000
H         1.415407      -0.283955       0.000000
           3
 Step:          440  E:    1.1080443104951438E-003
H       429.992497       4.578261       0.000000
H        -0.004826      -0.287561       0.000000
H         1.412329      -0.290700       0.000000
           3
 Step:          450  E:    6.4689559310533882E-003
H       439.992349       4.591729       0.000000
H         0.021670      -0.294335       0.000000
H         1.385980      -0.297394       0.000000
           3
 Step:          460  E:    1.3253609954551465E-003
H       449.992202       4.605198       0.000000
H        -0.005286      -0.300990       0.000000
H         1.413084      -0.304208       0.000000
           3
 Step:          470  E:    2.1417030834890087E-003
H       459.992054       4.618666       0.000000
H        -0.007213      -0.307702       0.000000
H         1.415159      -0.310964       0.000000
           3
 Step:          480  E:    6.3014248350416347E-003
H       469.991906       4.632135       0.000000
H         0.021678      -0.314484       0.000000
H         1.386416      -0.317651       0.000000
           3
 Step:          490  E:    4.4316788991651321E-004
H       479.991759       4.645603       0.000000
H        -0.002261      -0.321144       0.000000
H         1.410502      -0.324460       0.000000
           3
 Step:          500  E:    3.2667543970348314E-003
H       489.991611       4.659072       0.000000
H        -0.009287      -0.327843       0.000000
H         1.417676      -0.331229       0.000000
           3
 Step:          510  E:    5.7253381566622474E-003
H       499.991463       4.672541       0.000000
H         0.021141      -0.334632       0.000000
H         1.387396      -0.337909       0.000000
           3
 Step:          520  E:   -1.5446222058144163E-004
H       509.991315       4.686009       0.000000
H         0.000946      -0.341298       0.000000
H         1.407739      -0.344711       0.000000
           3
 Step:          530  E:    4.3613845172217527E-003
H       519.991168       4.699478       0.000000
H        -0.010989      -0.347985       0.000000
H         1.419821      -0.351492       0.000000
           3
 Step:          540  E:    4.8154748700100997E-003
H       529.991020       4.712946       0.000000
H         0.020085      -0.354778       0.000000
H         1.388895      -0.358169       0.000000
           3
 Step:          550  E:   -3.9359283091922064E-004
H       539.990872       4.726415       0.000000
H         0.004250      -0.361454       0.000000
H         1.404877      -0.364961       0.000000
           3
 Step:          560  E:    5.3101070729058147E-003
H       549.990725       4.739884       0.000000
H        -0.012266      -0.368128       0.000000
H         1.421542      -0.371755       0.000000
           3
 Step:          570  E:    3.6886581129568830E-003
H       559.990577       4.753352       0.000000
H         0.018552      -0.374922       0.000000
H         1.390871      -0.378430       0.000000
           3
 Step:          580  E:   -2.3864988335565914E-004
H       569.990429       4.766821       0.000000
H         0.007565      -0.381609       0.000000
H         1.402005      -0.385211       0.000000
           3
 Step:          590  E:    6.0147983975008118E-003
H       579.990282       4.780289       0.000000
H        -0.013082      -0.388272       0.000000
H         1.422801      -0.392017       0.000000
           3
 Step:          600  E:    2.4871470568724537E-003
H       589.990134       4.793758       0.000000
H         0.016597      -0.395066       0.000000
H         1.393269      -0.398692       0.000000
           3
 Step:          610  E:    3.0100853243698086E-004
H       599.989986       4.807226       0.000000
H         0.010800      -0.401766       0.000000
H         1.399214      -0.405461       0.000000
           3
 Step:          620  E:    6.4036063087509658E-003
H       609.989839       4.820695       0.000000
H        -0.013410      -0.408417       0.000000
H         1.423571      -0.412278       0.000000
           3
 Step:          630  E:    1.3591328746008920E-003
H       619.989691       4.834164       0.000000
H         0.014290      -0.415208       0.000000
H         1.396019      -0.418956       0.000000
           3
 Step:          640  E:    1.1694480460969080E-003
H       629.989543       4.847632       0.000000
H         0.013864      -0.421922       0.000000
H         1.396593      -0.425711       0.000000
           3
 Step:          650  E:    6.4372327485868967E-003
H       639.989396       4.861101       0.000000
H        -0.013235      -0.428563       0.000000
H         1.423839      -0.432538       0.000000
           3
 Step:          660  E:    4.3945551832001549E-004
H       649.989248       4.874569       0.000000
H         0.011711      -0.435348       0.000000
H         1.399041      -0.439221       0.000000
           3
 Step:          670  E:    2.2683599340290231E-003
H       659.989100       4.888038       0.000000
H         0.016670      -0.442078       0.000000
H         1.394230      -0.445960       0.000000
           3
 Step:          680  E:    6.1122900593089989E-003
H       669.988952       4.901507       0.000000
H        -0.012557      -0.448711       0.000000
H         1.423604      -0.452796       0.000000
           3
 Step:          690  E:   -1.6667742881853293E-004
H       679.988805       4.914975       0.000000
H         0.008945      -0.455488       0.000000
H         1.402250      -0.459487       0.000000
           3
 Step:          700  E:    3.4672918401114192E-003
H       689.988657       4.928444       0.000000
H         0.019139      -0.462233       0.000000
H         1.392204      -0.466211       0.000000
           3
 Step:          710  E:    5.4615877613191340E-003
H       699.988509       4.941912       0.000000
H        -0.011386      -0.468860       0.000000
H         1.422877      -0.473052       0.000000
           3
 Step:          720  E:   -3.9498338115159809E-004
H       709.988362       4.955381       0.000000
H         0.006081      -0.475627       0.000000
H         1.405557      -0.479754       0.000000
           3
 Step:          730  E:    4.6191260508807643E-003
H       719.988214       4.968849       0.000000
H         0.021199      -0.482387       0.000000
H         1.390587      -0.486462       0.000000
           3
 Step:          740  E:    4.5513381537910418E-003
H       729.988066       4.982318       0.000000
H        -0.009748      -0.489011       0.000000
H         1.421681      -0.493307       0.000000
           3
 Step:          750  E:   -2.2743595209081453E-004
H       739.987919       4.995787       0.000000
H         0.003211      -0.495766       0.000000
H         1.408870      -0.500021       0.000000
           3
 Step:          760  E:    5.5789977545174984E-003
H       749.987771       5.009255       0.000000
H         0.022790      -0.502541       0.000000
H         1.389439      -0.506715       0.000000
           3
 Step:          770  E:    3.4753982327575166E-003
H       759.987623       5.022724       0.000000
H        -0.007678      -0.509163       0.000000
H         1.420055      -0.513561       0.000000
           3
 Step:          780  E:    3.0834768526730112E-004
H       769.987476       5.036192       0.000000
H         0.000424      -0.515904       0.000000
H         1.412101      -0.520288       0.000000
           3
 Step:          790  E:    6.2239911203797503E-003
H       779.987328       5.049661       0.000000
H         0.023869      -0.522693       0.000000
H         1.388804      -0.526968       0.000000
           3
 Step:          800  E:    2.3468162213325342E-003
H       789.987180       5.063130       0.000000
H        -0.005225      -0.529317       0.000000
H         1.418045      -0.533813       0.000000
           3
 Step:          810  E:    1.1448578484748537E-003
H       799.987033       5.076598       0.000000
H        -0.002197      -0.536042       0.000000
H         1.415165      -0.540556       0.000000
           3
 Step:          820  E:    6.4705150231302118E-003
H       809.986885       5.090067       0.000000
H         0.024406      -0.542843       0.000000
H         1.388709      -0.547224       0.000000
           3
 Step:          830  E:    1.2871417896802009E-003
H       819.986737       5.103535       0.000000
H        -0.002447      -0.549472       0.000000
H         1.415710      -0.554064       0.000000
           3
 Step:          840  E:    2.1842800701561780E-003
H       829.986590       5.117004       0.000000
H        -0.004574      -0.556181       0.000000
H         1.417984      -0.560823       0.000000
           3
 Step:          850  E:    6.2864218124645413E-003
H       839.986442       5.130472       0.000000
H         0.024393      -0.562992       0.000000
H         1.389166      -0.567481       0.000000
           3
 Step:          860  E:    4.1419620364371287E-004
H       849.986294       5.143941       0.000000
H         0.000586      -0.569628       0.000000
H         1.413120      -0.574313       0.000000
           3
 Step:          870  E:    3.3104161801489921E-003
H       859.986146       5.157410       0.000000
H        -0.006635      -0.576320       0.000000
H         1.420488      -0.581089       0.000000
           3
 Step:          880  E:    5.6957280659418611E-003
H       869.985999       5.170878       0.000000
H         0.023835      -0.583138       0.000000
H         1.390166      -0.587740       0.000000
           3
 Step:          890  E:   -1.7072984381496039E-004
H       879.985851       5.184347       0.000000
H         0.003798      -0.589786       0.000000
H         1.410351      -0.594561       0.000000
           3
 Step:          900  E:    4.4014723504204505E-003
H       889.985703       5.197815       0.000000
H        -0.008320      -0.596461       0.000000
H         1.422617      -0.601355       0.000000
           3
 Step:          910  E:    4.7750847851982040E-003
H       899.985556       5.211284       0.000000
H         0.022760      -0.603283       0.000000
H         1.391684      -0.608001       0.000000
           3
 Step:          920  E:   -3.9501279613522467E-004
H       909.985408       5.224753       0.000000
H         0.007105      -0.609944       0.000000
H         1.407487      -0.614808       0.000000
           3
 Step:          930  E:    5.3424400573682789E-003
H       919.985260       5.238221       0.000000
H        -0.009581      -0.616602       0.000000
H         1.424321      -0.621619       0.000000
           3
 Step:          940  E:    3.6426354385079122E-003
H       929.985113       5.251690       0.000000
H         0.021209      -0.623426       0.000000
H         1.393678      -0.628264       0.000000
           3
 Step:          950  E:   -2.2472135116155068E-004
H       939.984965       5.265158       0.000000
H         0.010418      -0.630103       0.000000
H         1.404617      -0.635055       0.000000
           3
 Step:          960  E:    6.0360613432949269E-003
H       949.984817       5.278627       0.000000
H        -0.010378      -0.636745       0.000000
H         1.425561      -0.641882       0.000000
           3
 Step:          970  E:    2.4412393091743701E-003
H       959.984670       5.292095       0.000000
H         0.019240      -0.643567       0.000000
H         1.396091      -0.648528       0.000000
           3
 Step:          980  E:    3.2898084838421269E-004
H       969.984522       5.305564       0.000000
H         0.013648      -0.650262       0.000000
H         1.401831      -0.655302       0.000000
           3
 Step:          990  E:    6.4116439204427913E-003
H       979.984374       5.319033       0.000000
H        -0.010687      -0.656889       0.000000
H         1.426312      -0.662143       0.000000
           3
 Step:         1000  E:    1.3189184157725985E-003
H       989.984227       5.332501       0.000000
H         0.016921      -0.663707       0.000000
H         1.398852      -0.668795       0.000000
           3
 Step:         1010  E:    1.2084038245654498E-003
H       999.984079       5.345970       0.000000
H         0.016703      -0.670421       0.000000
H         1.399218      -0.675549       0.000000
           3
 Step:         1020  E:    6.4312351279752792E-003
H      1009.983931       5.359438       0.000000
H        -0.010492      -0.677036       0.000000
H         1.426561      -0.682403       0.000000
           3
 Step:         1030  E:    4.0964261077923686E-004
H      1019.983783       5.372907       0.000000
H         0.014333      -0.683845       0.000000
H         1.401884      -0.689062       0.000000
           3
 Step:         1040  E:    2.3137685096655779E-003
H      1029.983636       5.386376       0.000000
H         0.019498      -0.690579       0.000000
H         1.396866      -0.695796       0.000000
           3
 Step:         1050  E:    6.0928613026345569E-003
H      1039.983488       5.399844       0.000000
H        -0.009794      -0.697184       0.000000
H         1.426306      -0.702660       0.000000
           3
 Step:         1060  E:   -1.8278946323010314E-004
H      1049.983340       5.413313       0.000000
H         0.011561      -0.703981       0.000000
H         1.405098      -0.709331       0.000000
           3
 Step:         1070  E:    3.5136615279067877E-003
H      1059.983193       5.426781       0.000000
H         0.021952      -0.710737       0.000000
H         1.394855      -0.716045       0.000000
           3
 Step:         1080  E:    5.4306948495082040E-003
H      1069.983045       5.440250       0.000000
H        -0.008605      -0.717334       0.000000
H         1.425560      -0.722916       0.000000
           3
 Step:         1090  E:   -3.9582388489418766E-004
H      1079.982897       5.453719       0.000000
H         0.008696      -0.724118       0.000000
H         1.408407      -0.729601       0.000000
           3
 Step:         1100  E:    4.6606864189762832E-003
H      1089.982750       5.467187       0.000000
H         0.023995      -0.730893       0.000000
H         1.393255      -0.736294       0.000000
           3
 Step:         1110  E:    4.5121422108210449E-003
H      1099.982602       5.480656       0.000000
H        -0.006949      -0.737486       0.000000
H         1.424347      -0.743170       0.000000
           3
 Step:         1120  E:   -2.1324665837410098E-004
H      1109.982454       5.494124       0.000000
H         0.005828      -0.744253       0.000000
H         1.411718      -0.749871       0.000000
           3
 Step:         1130  E:    5.6104658598396433E-003
H      1119.982307       5.507593       0.000000
H         0.025567      -0.751047       0.000000
H         1.392126      -0.756545       0.000000
           3
 Step:         1140  E:    3.4319755115152588E-003
H      1129.982159       5.521061       0.000000
H        -0.004864      -0.757640       0.000000
H         1.422705      -0.763421       0.000000
           3
 Step:         1150  E:    3.3564670903784741E-004
H      1139.982011       5.534530       0.000000
H         0.003045      -0.764388       0.000000
H         1.414944      -0.770142       0.000000
           3
 Step:         1160  E:    6.2413066120527161E-003
H      1149.981864       5.547999       0.000000
H         0.026626      -0.771200       0.000000
H         1.391511      -0.776799       0.000000
           3
 Step:         1170  E:    2.3037827217180467E-003
H      1159.981716       5.561467       0.000000
H        -0.002397      -0.777796       0.000000
H         1.420681      -0.783671       0.000000
           3
 Step:         1180  E:    1.1819769551389609E-003
H      1169.981568       5.574936       0.000000
H         0.000432      -0.784524       0.000000
H         1.418000      -0.790412       0.000000
           3
 Step:         1190  E:    6.4714233971729556E-003
H      1179.981420       5.588404       0.000000
H         0.027142      -0.791351       0.000000
H         1.391438      -0.797054       0.000000
           3
 Step:         1200  E:    1.2492037316228512E-003
H      1189.981273       5.601873       0.000000
H         0.000392      -0.797954       0.000000
H         1.418336      -0.803919       0.000000
           3
 Step:         1210  E:    2.2269873462048202E-003
H      1199.981125       5.615342       0.000000
H        -0.001933      -0.804660       0.000000
H         1.420808      -0.810681       0.000000
           3
 Step:         1220  E:    6.2708044165760363E-003
H      1209.980977       5.628810       0.000000
H         0.027107      -0.811499       0.000000
H         1.391915      -0.817311       0.000000
           3
 Step:         1230  E:    3.8565858596307888E-004
H      1219.980830       5.642279       0.000000
H         0.003433      -0.818113       0.000000
H         1.415737      -0.824166       0.000000
           3
 Step:         1240  E:    3.3540246653759524E-003
H      1229.980682       5.655747       0.000000
H        -0.003981      -0.824797       0.000000
H         1.423299      -0.830950       0.000000
           3
 Step:         1250  E:    5.6656195828000550E-003
H      1239.980534       5.669216       0.000000
H         0.026529      -0.831645       0.000000
H         1.392936      -0.837571       0.000000
           3
 Step:         1260  E:   -1.8645358421543300E-004
H      1249.980387       5.682684       0.000000
H         0.006651      -0.838273       0.000000
H         1.412963      -0.844411       0.000000
           3
 Step:         1270  E:    4.4413336203697768E-003
H      1259.980239       5.696153       0.000000
H        -0.005651      -0.844936       0.000000
H         1.425412      -0.851217       0.000000
           3
 Step:         1280  E:    4.7343750185233910E-003
H      1269.980091       5.709622       0.000000
H         0.025435      -0.851788       0.000000
H         1.394474      -0.857833       0.000000
           3
 Step:         1290  E:   -3.9583734600636246E-004
H      1279.979944       5.723090       0.000000
H         0.009959      -0.858435       0.000000
H         1.410097      -0.864655       0.000000
           3
 Step:         1300  E:    5.3744000143590414E-003
H      1289.979796       5.736559       0.000000
H        -0.006894      -0.865076       0.000000
H         1.427098      -0.871483       0.000000
           3
 Step:         1310  E:    3.5965090820488732E-003
H      1299.979648       5.750027       0.000000
H         0.023867      -0.871929       0.000000
H         1.396485      -0.878098       0.000000
           3
 Step:         1320  E:   -2.1021389488506750E-004
H      1309.979501       5.763496       0.000000
H         0.013271      -0.878597       0.000000
H         1.407228      -0.884899       0.000000
           3
 Step:         1330  E:    6.0568448336618961E-003
H      1319.979353       5.776965       0.000000
H        -0.007673      -0.885218       0.000000
H         1.428320      -0.891747       0.000000
           3
 Step:         1340  E:    2.3954515470187713E-003
H      1329.979205       5.790433       0.000000
H         0.021882      -0.892068       0.000000
H         1.398913      -0.898365       0.000000
           3
 Step:         1350  E:    3.5744531731257001E-004
H      1339.979057       5.803902       0.000000
H         0.016496      -0.898759       0.000000
H         1.404447      -0.905143       0.000000
           3
 Step:         1360  E:    6.4191449482849106E-003
H      1349.978910       5.817370       0.000000
H        -0.007962      -0.905362       0.000000
H         1.429052      -0.912009       0.000000
           3
 Step:         1370  E:    1.2790262088303757E-003
H      1359.978762       5.830839       0.000000
H         0.019552      -0.912205       0.000000
H         1.401686      -0.918634       0.000000
           3
 Step:         1380  E:    1.2477013144537945E-003
H      1369.978614       5.844307       0.000000
H         0.019543      -0.918920       0.000000
H         1.401842      -0.925387       0.000000
           3
 Step:         1390  E:    6.4246979528349204E-003
H      1379.978467       5.857776       0.000000
H        -0.007748      -0.925508       0.000000
H         1.429281      -0.932268       0.000000
           3
 Step:         1400  E:    3.8030848314744511E-004
H      1389.978319       5.871245       0.000000
H         0.016955      -0.932340       0.000000
H         1.404726      -0.938904       0.000000
           3
 Step:         1410  E:    2.3593204112198206E-003
H      1399.978171       5.884713       0.000000
H         0.022326      -0.939081       0.000000
H         1.399502      -0.945632       0.000000
           3
 Step:         1420  E:    6.0729444289985010E-003
H      1409.978024       5.898182       0.000000
H        -0.007031      -0.945657       0.000000
H         1.429007      -0.952525       0.000000
           3
 Step:         1430  E:   -1.9832859362758104E-004
H      1419.977876       5.911650       0.000000
H         0.014178      -0.952474       0.000000
H         1.407946      -0.959176       0.000000
           3
 Step:         1440  E:    3.5599518366959053E-003
H      1429.977728       5.925119       0.000000
H         0.024766      -0.959241       0.000000
H         1.397506      -0.965878       0.000000
           3
 Step:         1450  E:    5.3994152994042508E-003
H      1439.977581       5.938588       0.000000
H        -0.005823      -0.965808       0.000000
H         1.428242      -0.972780       0.000000
           3
 Step:         1460  E:   -3.9606736934365635E-004
H      1449.977433       5.952056       0.000000
H         0.011311      -0.972607       0.000000
H         1.411256      -0.979449       0.000000
           3
 Step:         1470  E:    4.7019491256655530E-003
H      1459.977285       5.965525       0.000000
H         0.026792      -0.979398       0.000000
H         1.395923      -0.986126       0.000000
           3
 Step:         1480  E:    4.4727023451273315E-003
H      1469.977138       5.978993       0.000000
H        -0.004150      -0.985962       0.000000
H         1.427012      -0.993032       0.000000
           3
 Step:         1490  E:   -1.9850488942556148E-004
H      1479.976990       5.992462       0.000000
H         0.008444      -0.992740       0.000000
H         1.414566      -0.999722       0.000000
           3
 Step:         1500  E:    5.6414522311526473E-003
H      1489.976842       6.005930       0.000000
H         0.028345      -0.999554       0.000000
H         1.394813      -1.006376       0.000000
           3
 Step:         1510  E:    3.3884799842762770E-003
H      1499.976694       6.019399       0.000000
H        -0.002048      -1.006118       0.000000
H         1.425354      -1.013282       0.000000
           3
 Step:         1520  E:    3.6339402967204586E-004
H      1509.976547       6.032868       0.000000
H         0.005667      -1.012872       0.000000
H         1.417786      -1.019995       0.000000
           3
 Step:         1530  E:    6.2580166231633455E-003
H      1519.976399       6.046336       0.000000
H         0.029382      -1.019708       0.000000
H         1.394219      -1.026629       0.000000
           3
 Step:         1540  E:    2.2608597592057938E-003
H      1529.976251       6.059805       0.000000
H         0.000432      -1.026276       0.000000
H         1.423317      -1.033529       0.000000
           3
 Step:         1550  E:    1.2193952440562310E-003
H      1539.976104       6.073273       0.000000
H         0.003062      -1.033005       0.000000
H         1.420834      -1.040268       0.000000
           3
 Step:         1560  E:    6.4716808736212739E-003
H      1549.975956       6.086742       0.000000
H         0.029878      -1.039858       0.000000
H         1.394166      -1.046884       0.000000
           3
 Step:         1570  E:    1.2115533173157490E-003
H      1559.975808       6.100211       0.000000
H         0.003232      -1.046436       0.000000
H         1.420960      -1.053775       0.000000
           3
 Step:         1580  E:    2.2698178444757054E-003
H      1569.975661       6.113679       0.000000
H         0.000708      -1.053139       0.000000
H         1.423631      -1.060540       0.000000
           3
 Step:         1590  E:    6.2545757263854536E-003
H      1579.975513       6.127148       0.000000
H         0.029822      -1.060006       0.000000
H         1.394665      -1.067141       0.000000
           3
 Step:         1600  E:    3.5756019381625746E-004
H      1589.975365       6.140616       0.000000
H         0.006282      -1.066598       0.000000
H         1.418353      -1.074018       0.000000
           3
 Step:         1610  E:    3.3975728480314655E-003
H      1599.975218       6.154085       0.000000
H        -0.001326      -1.073274       0.000000
H         1.426108      -1.080811       0.000000
           3
 Step:         1620  E:    5.6350185922134123E-003
H      1609.975070       6.167554       0.000000
H         0.029223      -1.080151       0.000000
H         1.395707      -1.087402       0.000000
           3
 Step:         1630  E:   -2.0163028379896600E-004
H      1619.974922       6.181022       0.000000
H         0.009504      -1.086761       0.000000
H         1.415573      -1.094261       0.000000
           3
 Step:         1640  E:    4.4809620702174948E-003
H      1629.974775       6.194491       0.000000
H        -0.002980      -1.093411       0.000000
H         1.428206      -1.101080       0.000000
           3
 Step:         1650  E:    4.6933534110804647E-003
H      1639.974627       6.207959       0.000000
H         0.028110      -1.100293       0.000000
H         1.397264      -1.107666       0.000000
           3
 Step:         1660  E:   -3.9606581356712580E-004
H      1649.974479       6.221428       0.000000
H         0.012815      -1.106926       0.000000
H         1.412706      -1.114502       0.000000
           3
 Step:         1670  E:    5.4059820125507575E-003
H      1659.974331       6.234896       0.000000
H        -0.004206      -1.113549       0.000000
H         1.429875      -1.121347       0.000000
           3
 Step:         1680  E:    3.5502877427786737E-003
H      1669.974184       6.248365       0.000000
H         0.026524      -1.120433       0.000000
H         1.399292      -1.127932       0.000000
           3
 Step:         1690  E:   -1.9512957649594009E-004
H      1679.974036       6.261834       0.000000
H         0.016125      -1.127091       0.000000
H         1.409839      -1.134743       0.000000
           3
 Step:         1700  E:    6.0771456983719167E-003
H      1689.973888       6.275302       0.000000
H        -0.004966      -1.133691       0.000000
H         1.431078      -1.141612       0.000000
           3
 Step:         1710  E:    2.3497921638888477E-003
H      1699.973741       6.288771       0.000000
H         0.024525      -1.140569       0.000000
H         1.401734      -1.148202       0.000000
           3
 Step:         1720  E:    3.8639723336172829E-004
H      1709.973593       6.302239       0.000000
H         0.019345      -1.147255       0.000000
H         1.407062      -1.154984       0.000000
           3
 Step:         1730  E:    6.4261082547740437E-003
H      1719.973445       6.315708       0.000000
H        -0.005236      -1.153834       0.000000
H         1.431791      -1.161874       0.000000
           3
 Step:         1740  E:    1.2394632892877404E-003
H      1729.973298       6.329177       0.000000
H         0.022183      -1.160704       0.000000
H         1.404519      -1.168473       0.000000
           3
 Step:         1750  E:    1.2873336074505984E-003
H      1739.973150       6.342645       0.000000
H         0.022383      -1.167420       0.000000
H         1.404467      -1.175225       0.000000
           3
 Step:         1760  E:    6.4176222143216494E-003
H      1749.973002       6.356114       0.000000
H        -0.005002      -1.173981       0.000000
H         1.432000      -1.182133       0.000000
           3
 Step:         1770  E:    3.5145801212725625E-004
H      1759.972855       6.369582       0.000000
H         0.019578      -1.180836       0.000000
H         1.407568      -1.188746       0.000000
           3
 Step:         1780  E:    2.4050073075566579E-003
H      1769.972707       6.383051       0.000000
H         0.025155      -1.187583       0.000000
H         1.402138      -1.195468       0.000000
           3
 Step:         1790  E:    6.0525424746627754E-003
H      1779.972559       6.396519       0.000000
H        -0.004266      -1.194130       0.000000
H         1.431707      -1.202390       0.000000
           3
 Step:         1800  E:   -2.1329256821000603E-004
H      1789.972412       6.409988       0.000000
H         0.016796      -1.200967       0.000000
H         1.410793      -1.209021       0.000000
           3
 Step:         1810  E:    3.6061540513006654E-003
H      1799.972264       6.423457       0.000000
H         0.027580      -1.207745       0.000000
H         1.400156      -1.215712       0.000000
           3
 Step:         1820  E:    5.3677539326327534E-003
H      1809.972116       6.436925       0.000000
H        -0.003039      -1.214282       0.000000
H         1.430923      -1.222643       0.000000
           3
 Step:         1830  E:   -3.9571431678067588E-004
H      1819.971969       6.450394       0.000000
H         0.013927      -1.221097       0.000000
H         1.414105      -1.229297       0.000000
           3
 Step:         1840  E:    4.7429062332588192E-003
H      1829.971821       6.463862       0.000000
H         0.029588      -1.227904       0.000000
H         1.398591      -1.235958       0.000000
           3
 Step:         1850  E:    4.4330247389190360E-003
H      1839.971673       6.477331       0.000000
H        -0.001349      -1.234437       0.000000
H         1.429676      -1.242894       0.000000
           3
 Step:         1860  E:   -1.8321364413951749E-004
H      1849.971525       6.490800       0.000000
H         0.011062      -1.241227       0.000000
H         1.417412      -1.249573       0.000000
           3
 Step:         1870  E:    5.6719508168316364E-003
H      1859.971378       6.504268       0.000000
H         0.031122      -1.248061       0.000000
H         1.397500      -1.256207       0.000000
           3
 Step:         1880  E:    3.3449186250216786E-003
H      1869.971230       6.517737       0.000000
H         0.000768      -1.254595       0.000000
H         1.428002      -1.263142       0.000000
           3
 Step:         1890  E:    3.9158460880677761E-004
H      1879.971082       6.531205       0.000000
H         0.008290      -1.261356       0.000000
H         1.420628      -1.269849       0.000000
           3
 Step:         1900  E:    6.2741178606247174E-003
H      1889.970935       6.544674       0.000000
H         0.032139      -1.268215       0.000000
H         1.396926      -1.276459       0.000000
           3
 Step:         1910  E:    2.2180544202407633E-003
H      1899.970787       6.558142       0.000000
H         0.003262      -1.274756       0.000000
H         1.425951      -1.283387       0.000000
           3
 Step:         1920  E:    1.2571062885343776E-003
H      1909.970639       6.571611       0.000000
H         0.005693      -1.281486       0.000000
H         1.423667      -1.290125       0.000000
           3
 Step:         1930  E:    6.4712874015791927E-003
H      1919.970492       6.585080       0.000000
H         0.032613      -1.288366       0.000000
H         1.396895      -1.296714       0.000000
           3
 Step:         1940  E:    1.1741970045251555E-003
H      1929.970344       6.598548       0.000000
H         0.006073      -1.294919       0.000000
H         1.423583      -1.303630       0.000000
           3
 Step:         1950  E:    2.3127644865923698E-003
H      1939.970196       6.612017       0.000000
H         0.003351      -1.301618       0.000000
H         1.426453      -1.310399       0.000000
           3
 Step:         1960  E:    6.2377389407200484E-003
H      1949.970049       6.625485       0.000000
H         0.032536      -1.308514       0.000000
H         1.397416      -1.316972       0.000000
           3
 Step:         1970  E:    3.2990611833087416E-004
H      1959.969901       6.638954       0.000000
H         0.009131      -1.315083       0.000000
H         1.420968      -1.323871       0.000000
           3
 Step:         1980  E:    3.4410537401717910E-003
H      1969.969753       6.652423       0.000000
H         0.001330      -1.321751       0.000000
H         1.428916      -1.330672       0.000000
           3
 Step:         1990  E:    5.6039310727240910E-003
H      1979.969606       6.665891       0.000000
H         0.031917      -1.328658       0.000000
H         1.398478      -1.337234       0.000000
           3
 Step:         2000  E:   -2.1625687312017890E-004
H      1989.969458       6.679360       0.000000
H         0.012359      -1.335250       0.000000
H         1.418183      -1.344110       0.000000
