           3
 Step:           10  E:    511.49863610427059     
H        -0.026458       0.000000       0.000000
H         0.017018       0.000000       0.000000
H         1.409440       0.000000       0.000000
           3
 Step:           20  E:    4.7021271310080008     
H      -238.841695       0.000000       0.000000
H       249.135211       0.000000       0.000000
H         1.106484       0.000000       0.000000
           3
 Step:           30  E:    4.7021271310080008     
H      -477.656932       0.000000       0.000000
H       498.253403       0.000000       0.000000
H         0.803528       0.000000       0.000000
           3
 Step:           40  E:    4.7021271310080008     
H      -716.472168       0.000000       0.000000
H       747.371596       0.000000       0.000000
H         0.500572       0.000000       0.000000
           3
 Step:           50  E:    4.7021271310080008     
H      -955.287405       0.000000       0.000000
H       996.489789       0.000000       0.000000
H         0.197616       0.000000       0.000000
           3
 Step:           60  E:    4.7021271310080008     
H     -1194.102642       0.000000       0.000000
H      1245.607982       0.000000       0.000000
H        -0.105340       0.000000       0.000000
           3
 Step:           70  E:    4.7021271310080008     
H     -1432.917878       0.000000       0.000000
H      1494.726174       0.000000       0.000000
H        -0.408296       0.000000       0.000000
           3
 Step:           80  E:    4.7021271310080008     
H     -1671.733115       0.000000       0.000000
H      1743.844367       0.000000       0.000000
H        -0.711252       0.000000       0.000000
           3
 Step:           90  E:    4.7021271310080008     
H     -1910.548352       0.000000       0.000000
H      1992.962560       0.000000       0.000000
H        -1.014208       0.000000       0.000000
           3
 Step:          100  E:    4.7021271310080008     
H     -2149.363589       0.000000       0.000000
H      2242.080752       0.000000       0.000000
H        -1.317164       0.000000       0.000000
           3
 Step:          110  E:    4.7021271310080008     
H     -2388.178825       0.000000       0.000000
H      2491.198945       0.000000       0.000000
H        -1.620120       0.000000       0.000000
           3
 Step:          120  E:    4.7021271310080008     
H     -2626.994062       0.000000       0.000000
H      2740.317138       0.000000       0.000000
H        -1.923076       0.000000       0.000000
           3
 Step:          130  E:    4.7021271310080008     
H     -2865.809299       0.000000       0.000000
H      2989.435330       0.000000       0.000000
H        -2.226032       0.000000       0.000000
           3
 Step:          140  E:    4.7021271310080008     
H     -3104.624535       0.000000       0.000000
H      3238.553523       0.000000       0.000000
H        -2.528988       0.000000       0.000000
           3
 Step:          150  E:    4.7021271310080008     
H     -3343.439772       0.000000       0.000000
H      3487.671716       0.000000       0.000000
H        -2.831944       0.000000       0.000000
           3
 Step:          160  E:    4.7021271310080008     
H     -3582.255009       0.000000       0.000000
H      3736.789908       0.000000       0.000000
H        -3.134900       0.000000       0.000000
           3
 Step:          170  E:    4.7021271310080008     
H     -3821.070245       0.000000       0.000000
H      3985.908101       0.000000       0.000000
H        -3.437856       0.000000       0.000000
           3
 Step:          180  E:    4.7021271310080008     
H     -4059.885482       0.000000       0.000000
H      4235.026294       0.000000       0.000000
H        -3.740812       0.000000       0.000000
           3
 Step:          190  E:    4.7021271310080008     
H     -4298.700719       0.000000       0.000000
H      4484.144486       0.000000       0.000000
H        -4.043768       0.000000       0.000000
           3
 Step:          200  E:    4.7021271310080008     
H     -4537.515956       0.000000       0.000000
H      4733.262679       0.000000       0.000000
H        -4.346724       0.000000       0.000000
           3
 Step:          210  E:    4.7021271310080008     
H     -4776.331192       0.000000       0.000000
H      4982.380872       0.000000       0.000000
H        -4.649680       0.000000       0.000000
           3
 Step:          220  E:    4.7021271310080008     
H     -5015.146429       0.000000       0.000000
H      5231.499065       0.000000       0.000000
H        -4.952636       0.000000       0.000000
           3
 Step:          230  E:    4.7021271310080008     
H     -5253.961666       0.000000       0.000000
H      5480.617257       0.000000       0.000000
H        -5.255592       0.000000       0.000000
           3
 Step:          240  E:    4.7021271310080008     
H     -5492.776902       0.000000       0.000000
H      5729.735450       0.000000       0.000000
H        -5.558548       0.000000       0.000000
           3
 Step:          250  E:    4.7021271310080008     
H     -5731.592139       0.000000       0.000000
H      5978.853643       0.000000       0.000000
H        -5.861504       0.000000       0.000000
           3
 Step:          260  E:    4.7021271310080008     
H     -5970.407376       0.000000       0.000000
H      6227.971835       0.000000       0.000000
H        -6.164460       0.000000       0.000000
           3
 Step:          270  E:    4.7021271310080008     
H     -6209.222612       0.000000       0.000000
H      6477.090028       0.000000       0.000000
H        -6.467416       0.000000       0.000000
           3
 Step:          280  E:    4.7021271310080008     
H     -6448.037849       0.000000       0.000000
H      6726.208221       0.000000       0.000000
H        -6.770372       0.000000       0.000000
           3
 Step:          290  E:    4.7021271310080008     
H     -6686.853086       0.000000       0.000000
H      6975.326413       0.000000       0.000000
H        -7.073328       0.000000       0.000000
           3
 Step:          300  E:    4.7021271310080008     
H     -6925.668322       0.000000       0.000000
H      7224.444606       0.000000       0.000000
H        -7.376284       0.000000       0.000000
           3
 Step:          310  E:    4.7021271310080008     
H     -7164.483559       0.000000       0.000000
H      7473.562799       0.000000       0.000000
H        -7.679240       0.000000       0.000000
           3
 Step:          320  E:    4.7021271310080008     
H     -7403.298796       0.000000       0.000000
H      7722.680991       0.000000       0.000000
H        -7.982196       0.000000       0.000000
           3
 Step:          330  E:    4.7021271310080008     
H     -7642.114033       0.000000       0.000000
H      7971.799184       0.000000       0.000000
H        -8.285152       0.000000       0.000000
           3
 Step:          340  E:    4.7021271310080008     
H     -7880.929269       0.000000       0.000000
H      8220.917377       0.000000       0.000000
H        -8.588108       0.000000       0.000000
           3
 Step:          350  E:    4.7021271310080008     
H     -8119.744506       0.000000       0.000000
H      8470.035569       0.000000       0.000000
H        -8.891064       0.000000       0.000000
           3
 Step:          360  E:    4.7021271310080008     
H     -8358.559743       0.000000       0.000000
H      8719.153762       0.000000       0.000000
H        -9.194020       0.000000       0.000000
           3
 Step:          370  E:    4.7021271310080008     
H     -8597.374979       0.000000       0.000000
H      8968.271955       0.000000       0.000000
H        -9.496976       0.000000       0.000000
           3
 Step:          380  E:    4.7021271310080008     
H     -8836.190216       0.000000       0.000000
H      9217.390148       0.000000       0.000000
H        -9.799932       0.000000       0.000000
           3
 Step:          390  E:    4.7021271310080008     
H     -9075.005453       0.000000       0.000000
H      9466.508340       0.000000       0.000000
H       -10.102888       0.000000       0.000000
           3
 Step:          400  E:    4.7021271310080008     
H     -9313.820689       0.000000       0.000000
H      9715.626533       0.000000       0.000000
H       -10.405844       0.000000       0.000000
           3
 Step:          410  E:    4.7021271310080008     
H     -9552.635926       0.000000       0.000000
H      9964.744726       0.000000       0.000000
H       -10.708800       0.000000       0.000000
           3
 Step:          420  E:    4.7021271310080008     
H     -9791.451163       0.000000       0.000000
H     10213.862918       0.000000       0.000000
H       -11.011756       0.000000       0.000000
           3
 Step:          430  E:    4.7021271310080008     
H    -10030.266399       0.000000       0.000000
H     10462.981111       0.000000       0.000000
H       -11.314712       0.000000       0.000000
           3
 Step:          440  E:    4.7021271310080008     
H    -10269.081636       0.000000       0.000000
H     10712.099304       0.000000       0.000000
H       -11.617668       0.000000       0.000000
           3
 Step:          450  E:    4.7021271310080008     
H    -10507.896873       0.000000       0.000000
H     10961.217496       0.000000       0.000000
H       -11.920624       0.000000       0.000000
           3
 Step:          460  E:    4.7021271310080008     
H    -10746.712110       0.000000       0.000000
H     11210.335689       0.000000       0.000000
H       -12.223580       0.000000       0.000000
           3
 Step:          470  E:    4.7021271310080008     
H    -10985.527346       0.000000       0.000000
H     11459.453882       0.000000       0.000000
H       -12.526536       0.000000       0.000000
           3
 Step:          480  E:    4.7021271310080008     
H    -11224.342583       0.000000       0.000000
H     11708.572074       0.000000       0.000000
H       -12.829492       0.000000       0.000000
           3
 Step:          490  E:    4.7021271310080008     
H    -11463.157820       0.000000       0.000000
H     11957.690267       0.000000       0.000000
H       -13.132447       0.000000       0.000000
           3
 Step:          500  E:    4.7021271310080008     
H    -11701.973056       0.000000       0.000000
H     12206.808460       0.000000       0.000000
H       -13.435403       0.000000       0.000000
           3
 Step:          510  E:    4.7021271310080008     
H    -11940.788293       0.000000       0.000000
H     12455.926652       0.000000       0.000000
H       -13.738359       0.000000       0.000000
           3
 Step:          520  E:    4.7021271310080008     
H    -12179.603530       0.000000       0.000000
H     12705.044845       0.000000       0.000000
H       -14.041315       0.000000       0.000000
           3
 Step:          530  E:    4.7021271310080008     
H    -12418.418766       0.000000       0.000000
H     12954.163038       0.000000       0.000000
H       -14.344271       0.000000       0.000000
           3
 Step:          540  E:    4.7021271310080008     
H    -12657.234003       0.000000       0.000000
H     13203.281231       0.000000       0.000000
H       -14.647227       0.000000       0.000000
           3
 Step:          550  E:    4.7021271310080008     
H    -12896.049240       0.000000       0.000000
H     13452.399423       0.000000       0.000000
H       -14.950183       0.000000       0.000000
           3
 Step:          560  E:    4.7021271310080008     
H    -13134.864476       0.000000       0.000000
H     13701.517616       0.000000       0.000000
H       -15.253139       0.000000       0.000000
           3
 Step:          570  E:    4.7021271310080008     
H    -13373.679713       0.000000       0.000000
H     13950.635809       0.000000       0.000000
H       -15.556095       0.000000       0.000000
           3
 Step:          580  E:    4.7021271310080008     
H    -13612.494950       0.000000       0.000000
H     14199.754001       0.000000       0.000000
H       -15.859051       0.000000       0.000000
           3
 Step:          590  E:    4.7021271310080008     
H    -13851.310187       0.000000       0.000000
H     14448.872194       0.000000       0.000000
H       -16.162007       0.000000       0.000000
           3
 Step:          600  E:    4.7021271310080008     
H    -14090.125423       0.000000       0.000000
H     14697.990387       0.000000       0.000000
H       -16.464963       0.000000       0.000000
           3
 Step:          610  E:    4.7021271310080008     
H    -14328.940660       0.000000       0.000000
H     14947.108579       0.000000       0.000000
H       -16.767919       0.000000       0.000000
           3
 Step:          620  E:    4.7021271310080008     
H    -14567.755897       0.000000       0.000000
H     15196.226772       0.000000       0.000000
H       -17.070875       0.000000       0.000000
           3
 Step:          630  E:    4.7021271310080008     
H    -14806.571133       0.000000       0.000000
H     15445.344965       0.000000       0.000000
H       -17.373831       0.000000       0.000000
           3
 Step:          640  E:    4.7021271310080008     
H    -15045.386370       0.000000       0.000000
H     15694.463157       0.000000       0.000000
H       -17.676787       0.000000       0.000000
           3
 Step:          650  E:    4.7021271310080008     
H    -15284.201607       0.000000       0.000000
H     15943.581350       0.000000       0.000000
H       -17.979743       0.000000       0.000000
           3
 Step:          660  E:    4.7021271310080008     
H    -15523.016843       0.000000       0.000000
H     16192.699543       0.000000       0.000000
H       -18.282699       0.000000       0.000000
           3
 Step:          670  E:    4.7021271310080008     
H    -15761.832080       0.000000       0.000000
H     16441.817735       0.000000       0.000000
H       -18.585655       0.000000       0.000000
           3
 Step:          680  E:    4.7021271310080008     
H    -16000.647317       0.000000       0.000000
H     16690.935928       0.000000       0.000000
H       -18.888611       0.000000       0.000000
           3
 Step:          690  E:    4.7021271310080008     
H    -16239.462553       0.000000       0.000000
H     16940.054121       0.000000       0.000000
H       -19.191567       0.000000       0.000000
           3
 Step:          700  E:    4.7021271310080008     
H    -16478.277790       0.000000       0.000000
H     17189.172314       0.000000       0.000000
H       -19.494523       0.000000       0.000000
           3
 Step:          710  E:    4.7021271310080008     
H    -16717.093027       0.000000       0.000000
H     17438.290506       0.000000       0.000000
H       -19.797479       0.000000       0.000000
           3
 Step:          720  E:    4.7021271310080008     
H    -16955.908264       0.000000       0.000000
H     17687.408699       0.000000       0.000000
H       -20.100435       0.000000       0.000000
           3
 Step:          730  E:    4.7021271310080008     
H    -17194.723500       0.000000       0.000000
H     17936.526892       0.000000       0.000000
H       -20.403391       0.000000       0.000000
           3
 Step:          740  E:    4.7021271310080008     
H    -17433.538737       0.000000       0.000000
H     18185.645084       0.000000       0.000000
H       -20.706347       0.000000       0.000000
           3
 Step:          750  E:    4.7021271310080008     
H    -17672.353974       0.000000       0.000000
H     18434.763277       0.000000       0.000000
H       -21.009303       0.000000       0.000000
           3
 Step:          760  E:    4.7021271310080008     
H    -17911.169210       0.000000       0.000000
H     18683.881470       0.000000       0.000000
H       -21.312259       0.000000       0.000000
           3
 Step:          770  E:    4.7021271310080008     
H    -18149.984447       0.000000       0.000000
H     18932.999662       0.000000       0.000000
H       -21.615215       0.000000       0.000000
           3
 Step:          780  E:    4.7021271310080008     
H    -18388.799684       0.000000       0.000000
H     19182.117855       0.000000       0.000000
H       -21.918171       0.000000       0.000000
           3
 Step:          790  E:    4.7021271310080008     
H    -18627.614920       0.000000       0.000000
H     19431.236048       0.000000       0.000000
H       -22.221127       0.000000       0.000000
           3
 Step:          800  E:    4.7021271310080008     
H    -18866.430157       0.000000       0.000000
H     19680.354240       0.000000       0.000000
H       -22.524083       0.000000       0.000000
           3
 Step:          810  E:    4.7021271310080008     
H    -19105.245394       0.000000       0.000000
H     19929.472433       0.000000       0.000000
H       -22.827039       0.000000       0.000000
           3
 Step:          820  E:    4.7021271310080008     
H    -19344.060630       0.000000       0.000000
H     20178.590626       0.000000       0.000000
H       -23.129995       0.000000       0.000000
           3
 Step:          830  E:    4.7021271310080008     
H    -19582.875867       0.000000       0.000000
H     20427.708818       0.000000       0.000000
H       -23.432951       0.000000       0.000000
           3
 Step:          840  E:    4.7021271310080008     
H    -19821.691104       0.000000       0.000000
H     20676.827011       0.000000       0.000000
H       -23.735907       0.000000       0.000000
           3
 Step:          850  E:    4.7021271310080008     
H    -20060.506341       0.000000       0.000000
H     20925.945204       0.000000       0.000000
H       -24.038863       0.000000       0.000000
           3
 Step:          860  E:    4.7021271310080008     
H    -20299.321577       0.000000       0.000000
H     21175.063397       0.000000       0.000000
H       -24.341819       0.000000       0.000000
           3
 Step:          870  E:    4.7021271310080008     
H    -20538.136814       0.000000       0.000000
H     21424.181589       0.000000       0.000000
H       -24.644775       0.000000       0.000000
           3
 Step:          880  E:    4.7021271310080008     
H    -20776.952051       0.000000       0.000000
H     21673.299782       0.000000       0.000000
H       -24.947731       0.000000       0.000000
           3
 Step:          890  E:    4.7021271310080008     
H    -21015.767287       0.000000       0.000000
H     21922.417975       0.000000       0.000000
H       -25.250687       0.000000       0.000000
           3
 Step:          900  E:    4.7021271310080008     
H    -21254.582524       0.000000       0.000000
H     22171.536167       0.000000       0.000000
H       -25.553643       0.000000       0.000000
           3
 Step:          910  E:    4.7021271310080008     
H    -21493.397761       0.000000       0.000000
H     22420.654360       0.000000       0.000000
H       -25.856599       0.000000       0.000000
           3
 Step:          920  E:    4.7021271310080008     
H    -21732.212997       0.000000       0.000000
H     22669.772553       0.000000       0.000000
H       -26.159555       0.000000       0.000000
           3
 Step:          930  E:    4.7021271310080008     
H    -21971.028234       0.000000       0.000000
H     22918.890745       0.000000       0.000000
H       -26.462511       0.000000       0.000000
           3
 Step:          940  E:    4.7021271310080008     
H    -22209.843471       0.000000       0.000000
H     23168.008938       0.000000       0.000000
H       -26.765467       0.000000       0.000000
           3
 Step:          950  E:    4.7021271310080008     
H    -22448.658707       0.000000       0.000000
H     23417.127131       0.000000       0.000000
H       -27.068423       0.000000       0.000000
           3
 Step:          960  E:    4.7021271310080008     
H    -22687.473944       0.000000       0.000000
H     23666.245323       0.000000       0.000000
H       -27.371379       0.000000       0.000000
           3
 Step:          970  E:    4.7021271310080008     
H    -22926.289181       0.000000       0.000000
H     23915.363516       0.000000       0.000000
H       -27.674335       0.000000       0.000000
           3
 Step:          980  E:    4.7021271310080008     
H    -23165.104418       0.000000       0.000000
H     24164.481709       0.000000       0.000000
H       -27.977291       0.000000       0.000000
           3
 Step:          990  E:    4.7021271310080008     
H    -23403.919654       0.000000       0.000000
H     24413.599901       0.000000       0.000000
H       -28.280247       0.000000       0.000000
           3
 Step:         1000  E:    4.7021271310080008     
H    -23642.734891       0.000000       0.000000
H     24662.718094       0.000000       0.000000
H       -28.583203       0.000000       0.000000
           3
 Step:         1010  E:    4.7021271310080008     
H    -23881.550128       0.000000       0.000000
H     24911.836287       0.000000       0.000000
H       -28.886159       0.000000       0.000000
           3
 Step:         1020  E:    4.7021271310080008     
H    -24120.365364       0.000000       0.000000
H     25160.954480       0.000000       0.000000
H       -29.189115       0.000000       0.000000
           3
 Step:         1030  E:    4.7021271310080008     
H    -24359.180601       0.000000       0.000000
H     25410.072672       0.000000       0.000000
H       -29.492071       0.000000       0.000000
           3
 Step:         1040  E:    4.7021271310080008     
H    -24597.995838       0.000000       0.000000
H     25659.190865       0.000000       0.000000
H       -29.795027       0.000000       0.000000
           3
 Step:         1050  E:    4.7021271310080008     
H    -24836.811074       0.000000       0.000000
H     25908.309058       0.000000       0.000000
H       -30.097983       0.000000       0.000000
           3
 Step:         1060  E:    4.7021271310080008     
H    -25075.626311       0.000000       0.000000
H     26157.427250       0.000000       0.000000
H       -30.400939       0.000000       0.000000
           3
 Step:         1070  E:    4.7021271310080008     
H    -25314.441548       0.000000       0.000000
H     26406.545443       0.000000       0.000000
H       -30.703895       0.000000       0.000000
           3
 Step:         1080  E:    4.7021271310080008     
H    -25553.256785       0.000000       0.000000
H     26655.663636       0.000000       0.000000
H       -31.006851       0.000000       0.000000
           3
 Step:         1090  E:    4.7021271310080008     
H    -25792.072021       0.000000       0.000000
H     26904.781828       0.000000       0.000000
H       -31.309807       0.000000       0.000000
           3
 Step:         1100  E:    4.7021271310080008     
H    -26030.887258       0.000000       0.000000
H     27153.900021       0.000000       0.000000
H       -31.612763       0.000000       0.000000
           3
 Step:         1110  E:    4.7021271310080008     
H    -26269.702495       0.000000       0.000000
H     27403.018214       0.000000       0.000000
H       -31.915719       0.000000       0.000000
           3
 Step:         1120  E:    4.7021271310080008     
H    -26508.517731       0.000000       0.000000
H     27652.136406       0.000000       0.000000
H       -32.218675       0.000000       0.000000
           3
 Step:         1130  E:    4.7021271310080008     
H    -26747.332968       0.000000       0.000000
H     27901.254599       0.000000       0.000000
H       -32.521631       0.000000       0.000000
           3
 Step:         1140  E:    4.7021271310080008     
H    -26986.148205       0.000000       0.000000
H     28150.372792       0.000000       0.000000
H       -32.824587       0.000000       0.000000
           3
 Step:         1150  E:    4.7021271310080008     
H    -27224.963441       0.000000       0.000000
H     28399.490984       0.000000       0.000000
H       -33.127543       0.000000       0.000000
           3
 Step:         1160  E:    4.7021271310080008     
H    -27463.778678       0.000000       0.000000
H     28648.609177       0.000000       0.000000
H       -33.430499       0.000000       0.000000
           3
 Step:         1170  E:    4.7021271310080008     
H    -27702.593915       0.000000       0.000000
H     28897.727370       0.000000       0.000000
H       -33.733455       0.000000       0.000000
           3
 Step:         1180  E:    4.7021271310080008     
H    -27941.409151       0.000000       0.000000
H     29146.845563       0.000000       0.000000
H       -34.036411       0.000000       0.000000
           3
 Step:         1190  E:    4.7021271310080008     
H    -28180.224388       0.000000       0.000000
H     29395.963755       0.000000       0.000000
H       -34.339367       0.000000       0.000000
           3
 Step:         1200  E:    4.7021271310080008     
H    -28419.039625       0.000000       0.000000
H     29645.081948       0.000000       0.000000
H       -34.642323       0.000000       0.000000
           3
 Step:         1210  E:    4.7021271310080008     
H    -28657.854862       0.000000       0.000000
H     29894.200141       0.000000       0.000000
H       -34.945279       0.000000       0.000000
           3
 Step:         1220  E:    4.7021271310080008     
H    -28896.670098       0.000000       0.000000
H     30143.318333       0.000000       0.000000
H       -35.248235       0.000000       0.000000
           3
 Step:         1230  E:    4.7021271310080008     
H    -29135.485335       0.000000       0.000000
H     30392.436526       0.000000       0.000000
H       -35.551191       0.000000       0.000000
           3
 Step:         1240  E:    4.7021271310080008     
H    -29374.300572       0.000000       0.000000
H     30641.554719       0.000000       0.000000
H       -35.854147       0.000000       0.000000
           3
 Step:         1250  E:    4.7021271310080008     
H    -29613.115808       0.000000       0.000000
H     30890.672911       0.000000       0.000000
H       -36.157103       0.000000       0.000000
           3
 Step:         1260  E:    4.7021271310080008     
H    -29851.931045       0.000000       0.000000
H     31139.791104       0.000000       0.000000
H       -36.460059       0.000000       0.000000
           3
 Step:         1270  E:    4.7021271310080008     
H    -30090.746282       0.000000       0.000000
H     31388.909297       0.000000       0.000000
H       -36.763015       0.000000       0.000000
           3
 Step:         1280  E:    4.7021271310080008     
H    -30329.561518       0.000000       0.000000
H     31638.027489       0.000000       0.000000
H       -37.065971       0.000000       0.000000
           3
 Step:         1290  E:    4.7021271310080008     
H    -30568.376755       0.000000       0.000000
H     31887.145682       0.000000       0.000000
H       -37.368927       0.000000       0.000000
           3
 Step:         1300  E:    4.7021271310080008     
H    -30807.191992       0.000000       0.000000
H     32136.263875       0.000000       0.000000
H       -37.671883       0.000000       0.000000
           3
 Step:         1310  E:    4.7021271310080008     
H    -31046.007228       0.000000       0.000000
H     32385.382067       0.000000       0.000000
H       -37.974839       0.000000       0.000000
           3
 Step:         1320  E:    4.7021271310080008     
H    -31284.822465       0.000000       0.000000
H     32634.500260       0.000000       0.000000
H       -38.277795       0.000000       0.000000
           3
 Step:         1330  E:    4.7021271310080008     
H    -31523.637702       0.000000       0.000000
H     32883.618453       0.000000       0.000000
H       -38.580751       0.000000       0.000000
           3
 Step:         1340  E:    4.7021271310080008     
H    -31762.452939       0.000000       0.000000
H     33132.736646       0.000000       0.000000
H       -38.883707       0.000000       0.000000
           3
 Step:         1350  E:    4.7021271310080008     
H    -32001.268175       0.000000       0.000000
H     33381.854838       0.000000       0.000000
H       -39.186663       0.000000       0.000000
           3
 Step:         1360  E:    4.7021271310080008     
H    -32240.083412       0.000000       0.000000
H     33630.973031       0.000000       0.000000
H       -39.489619       0.000000       0.000000
           3
 Step:         1370  E:    4.7021271310080008     
H    -32478.898649       0.000000       0.000000
H     33880.091224       0.000000       0.000000
H       -39.792575       0.000000       0.000000
           3
 Step:         1380  E:    4.7021271310080008     
H    -32717.713885       0.000000       0.000000
H     34129.209416       0.000000       0.000000
H       -40.095531       0.000000       0.000000
           3
 Step:         1390  E:    4.7021271310080008     
H    -32956.529122       0.000000       0.000000
H     34378.327609       0.000000       0.000000
H       -40.398487       0.000000       0.000000
           3
 Step:         1400  E:    4.7021271310080008     
H    -33195.344359       0.000000       0.000000
H     34627.445802       0.000000       0.000000
H       -40.701443       0.000000       0.000000
           3
 Step:         1410  E:    4.7021271310080008     
H    -33434.159595       0.000000       0.000000
H     34876.563994       0.000000       0.000000
H       -41.004399       0.000000       0.000000
           3
 Step:         1420  E:    4.7021271310080008     
H    -33672.974832       0.000000       0.000000
H     35125.682187       0.000000       0.000000
H       -41.307355       0.000000       0.000000
           3
 Step:         1430  E:    4.7021271310080008     
H    -33911.790069       0.000000       0.000000
H     35374.800380       0.000000       0.000000
H       -41.610311       0.000000       0.000000
           3
 Step:         1440  E:    4.7021271310080008     
H    -34150.605305       0.000000       0.000000
H     35623.918572       0.000000       0.000000
H       -41.913267       0.000000       0.000000
           3
 Step:         1450  E:    4.7021271310080008     
H    -34389.420542       0.000000       0.000000
H     35873.036765       0.000000       0.000000
H       -42.216223       0.000000       0.000000
           3
 Step:         1460  E:    4.7021271310080008     
H    -34628.235779       0.000000       0.000000
H     36122.154958       0.000000       0.000000
H       -42.519179       0.000000       0.000000
           3
 Step:         1470  E:    4.7021271310080008     
H    -34867.051016       0.000000       0.000000
H     36371.273150       0.000000       0.000000
H       -42.822135       0.000000       0.000000
           3
 Step:         1480  E:    4.7021271310080008     
H    -35105.866252       0.000000       0.000000
H     36620.391343       0.000000       0.000000
H       -43.125091       0.000000       0.000000
           3
 Step:         1490  E:    4.7021271310080008     
H    -35344.681489       0.000000       0.000000
H     36869.509536       0.000000       0.000000
H       -43.428047       0.000000       0.000000
           3
 Step:         1500  E:    4.7021271310080008     
H    -35583.496726       0.000000       0.000000
H     37118.627729       0.000000       0.000000
H       -43.731003       0.000000       0.000000
           3
 Step:         1510  E:    4.7021271310080008     
H    -35822.311962       0.000000       0.000000
H     37367.745921       0.000000       0.000000
H       -44.033959       0.000000       0.000000
           3
 Step:         1520  E:    4.7021271310080008     
H    -36061.127199       0.000000       0.000000
H     37616.864114       0.000000       0.000000
H       -44.336915       0.000000       0.000000
           3
 Step:         1530  E:    4.7021271310080008     
H    -36299.942436       0.000000       0.000000
H     37865.982307       0.000000       0.000000
H       -44.639871       0.000000       0.000000
           3
 Step:         1540  E:    4.7021271310080008     
H    -36538.757672       0.000000       0.000000
H     38115.100499       0.000000       0.000000
H       -44.942827       0.000000       0.000000
           3
 Step:         1550  E:    4.7021271310080008     
H    -36777.572909       0.000000       0.000000
H     38364.218692       0.000000       0.000000
H       -45.245783       0.000000       0.000000
           3
 Step:         1560  E:    4.7021271310080008     
H    -37016.388146       0.000000       0.000000
H     38613.336885       0.000000       0.000000
H       -45.548739       0.000000       0.000000
           3
 Step:         1570  E:    4.7021271310080008     
H    -37255.203382       0.000000       0.000000
H     38862.455077       0.000000       0.000000
H       -45.851695       0.000000       0.000000
           3
 Step:         1580  E:    4.7021271310080008     
H    -37494.018619       0.000000       0.000000
H     39111.573270       0.000000       0.000000
H       -46.154651       0.000000       0.000000
           3
 Step:         1590  E:    4.7021271310080008     
H    -37732.833856       0.000000       0.000000
H     39360.691463       0.000000       0.000000
H       -46.457607       0.000000       0.000000
           3
 Step:         1600  E:    4.7021271310080008     
H    -37971.649093       0.000000       0.000000
H     39609.809655       0.000000       0.000000
H       -46.760563       0.000000       0.000000
           3
 Step:         1610  E:    4.7021271310080008     
H    -38210.464329       0.000000       0.000000
H     39858.927848       0.000000       0.000000
H       -47.063519       0.000000       0.000000
           3
 Step:         1620  E:    4.7021271310080008     
H    -38449.279566       0.000000       0.000000
H     40108.046041       0.000000       0.000000
H       -47.366475       0.000000       0.000000
           3
 Step:         1630  E:    4.7021271310080008     
H    -38688.094803       0.000000       0.000000
H     40357.164233       0.000000       0.000000
H       -47.669431       0.000000       0.000000
           3
 Step:         1640  E:    4.7021271310080008     
H    -38926.910039       0.000000       0.000000
H     40606.282426       0.000000       0.000000
H       -47.972387       0.000000       0.000000
           3
 Step:         1650  E:    4.7021271310080008     
H    -39165.725276       0.000000       0.000000
H     40855.400619       0.000000       0.000000
H       -48.275343       0.000000       0.000000
           3
 Step:         1660  E:    4.7021271310080008     
H    -39404.540513       0.000000       0.000000
H     41104.518812       0.000000       0.000000
H       -48.578299       0.000000       0.000000
           3
 Step:         1670  E:    4.7021271310080008     
H    -39643.355749       0.000000       0.000000
H     41353.637004       0.000000       0.000000
H       -48.881255       0.000000       0.000000
           3
 Step:         1680  E:    4.7021271310080008     
H    -39882.170986       0.000000       0.000000
H     41602.755197       0.000000       0.000000
H       -49.184211       0.000000       0.000000
           3
 Step:         1690  E:    4.7021271310080008     
H    -40120.986223       0.000000       0.000000
H     41851.873390       0.000000       0.000000
H       -49.487167       0.000000       0.000000
           3
 Step:         1700  E:    4.7021271310080008     
H    -40359.801459       0.000000       0.000000
H     42100.991582       0.000000       0.000000
H       -49.790123       0.000000       0.000000
           3
 Step:         1710  E:    4.7021271310080008     
H    -40598.616696       0.000000       0.000000
H     42350.109775       0.000000       0.000000
H       -50.093079       0.000000       0.000000
           3
 Step:         1720  E:    4.7021271310080008     
H    -40837.431933       0.000000       0.000000
H     42599.227968       0.000000       0.000000
H       -50.396035       0.000000       0.000000
           3
 Step:         1730  E:    4.7021271310080008     
H    -41076.247170       0.000000       0.000000
H     42848.346160       0.000000       0.000000
H       -50.698991       0.000000       0.000000
           3
 Step:         1740  E:    4.7021271310080008     
H    -41315.062406       0.000000       0.000000
H     43097.464353       0.000000       0.000000
H       -51.001947       0.000000       0.000000
           3
 Step:         1750  E:    4.7021271310080008     
H    -41553.877643       0.000000       0.000000
H     43346.582546       0.000000       0.000000
H       -51.304903       0.000000       0.000000
           3
 Step:         1760  E:    4.7021271310080008     
H    -41792.692880       0.000000       0.000000
H     43595.700738       0.000000       0.000000
H       -51.607859       0.000000       0.000000
           3
 Step:         1770  E:    4.7021271310080008     
H    -42031.508116       0.000000       0.000000
H     43844.818931       0.000000       0.000000
H       -51.910815       0.000000       0.000000
           3
 Step:         1780  E:    4.7021271310080008     
H    -42270.323353       0.000000       0.000000
H     44093.937124       0.000000       0.000000
H       -52.213771       0.000000       0.000000
           3
 Step:         1790  E:    4.7021271310080008     
H    -42509.138590       0.000000       0.000000
H     44343.055316       0.000000       0.000000
H       -52.516727       0.000000       0.000000
           3
 Step:         1800  E:    4.7021271310080008     
H    -42747.953826       0.000000       0.000000
H     44592.173509       0.000000       0.000000
H       -52.819683       0.000000       0.000000
           3
 Step:         1810  E:    4.7021271310080008     
H    -42986.769063       0.000000       0.000000
H     44841.291702       0.000000       0.000000
H       -53.122639       0.000000       0.000000
           3
 Step:         1820  E:    4.7021271310080008     
H    -43225.584300       0.000000       0.000000
H     45090.409895       0.000000       0.000000
H       -53.425595       0.000000       0.000000
           3
 Step:         1830  E:    4.7021271310080008     
H    -43464.399536       0.000000       0.000000
H     45339.528087       0.000000       0.000000
H       -53.728551       0.000000       0.000000
           3
 Step:         1840  E:    4.7021271310080008     
H    -43703.214773       0.000000       0.000000
H     45588.646280       0.000000       0.000000
H       -54.031507       0.000000       0.000000
           3
 Step:         1850  E:    4.7021271310080008     
H    -43942.030010       0.000000       0.000000
H     45837.764473       0.000000       0.000000
H       -54.334463       0.000000       0.000000
           3
 Step:         1860  E:    4.7021271310080008     
H    -44180.845247       0.000000       0.000000
H     46086.882665       0.000000       0.000000
H       -54.637419       0.000000       0.000000
           3
 Step:         1870  E:    4.7021271310080008     
H    -44419.660483       0.000000       0.000000
H     46336.000858       0.000000       0.000000
H       -54.940375       0.000000       0.000000
           3
 Step:         1880  E:    4.7021271310080008     
H    -44658.475720       0.000000       0.000000
H     46585.119051       0.000000       0.000000
H       -55.243331       0.000000       0.000000
           3
 Step:         1890  E:    4.7021271310080008     
H    -44897.290957       0.000000       0.000000
H     46834.237243       0.000000       0.000000
H       -55.546287       0.000000       0.000000
           3
 Step:         1900  E:    4.7021271310080008     
H    -45136.106193       0.000000       0.000000
H     47083.355436       0.000000       0.000000
H       -55.849243       0.000000       0.000000
           3
 Step:         1910  E:    4.7021271310080008     
H    -45374.921430       0.000000       0.000000
H     47332.473629       0.000000       0.000000
H       -56.152199       0.000000       0.000000
           3
 Step:         1920  E:    4.7021271310080008     
H    -45613.736667       0.000000       0.000000
H     47581.591821       0.000000       0.000000
H       -56.455155       0.000000       0.000000
           3
 Step:         1930  E:    4.7021271310080008     
H    -45852.551903       0.000000       0.000000
H     47830.710014       0.000000       0.000000
H       -56.758111       0.000000       0.000000
           3
 Step:         1940  E:    4.7021271310080008     
H    -46091.367140       0.000000       0.000000
H     48079.828207       0.000000       0.000000
H       -57.061067       0.000000       0.000000
           3
 Step:         1950  E:    4.7021271310080008     
H    -46330.182377       0.000000       0.000000
H     48328.946399       0.000000       0.000000
H       -57.364023       0.000000       0.000000
           3
 Step:         1960  E:    4.7021271310080008     
H    -46568.997614       0.000000       0.000000
H     48578.064592       0.000000       0.000000
H       -57.666979       0.000000       0.000000
           3
 Step:         1970  E:    4.7021271310080008     
H    -46807.812850       0.000000       0.000000
H     48827.182785       0.000000       0.000000
H       -57.969935       0.000000       0.000000
           3
 Step:         1980  E:    4.7021271310080008     
H    -47046.628087       0.000000       0.000000
H     49076.300978       0.000000       0.000000
H       -58.272891       0.000000       0.000000
           3
 Step:         1990  E:    4.7021271310080008     
H    -47285.443324       0.000000       0.000000
H     49325.419170       0.000000       0.000000
H       -58.575847       0.000000       0.000000
           3
 Step:         2000  E:    4.7021271310080008     
H    -47524.258560       0.000000       0.000000
H     49574.537363       0.000000       0.000000
H       -58.878803       0.000000       0.000000
